c Output_time 26.03.2020 18:13:26_+0100 1585242806145916721
c ** Program information **
c program_name                          "QBRG_debug"
c version                               "0.3.20"
c date                                  "25.3.2020"
c gid_id                                "673970833836058123f633335630c185360d632e"
c author                                "Oliver Kullmann"
c url                                   "https://github.com/OKullmann/oklibrary/blob/master/Satisfiability/Transformers/Generators/Random/QBRG.cpp"
c ** Machine information **
c machine_name                          "chyna-Lenovo-G50-70"
c bogomips                              3791.08
c ** Compilation information **
c compiler_version                      "g++ 7.5.0"
c compilation_date                      "Mar_26_2020 11:16:30"
c compilation_options                   "--std=c++17 -pedantic -fmax-errors=5 -Wall -Wextra -g -D_GLIBCXX_DEBUG"
c NDEBUG                                0
c OPTIMIZE                              0
c ** Parameters **
c command-line                          "./QBRG_debug" "e40 a40 40" "497*1,1|2-2,1|3-3,1" "" "1,t" ""
c output                                "QuBlRaGe_120_497_1585242805992201276.qdimacs"
c options                               "filtered,renamed"
c num_quantifier_blocks                 3
c  quantifier_blocks                    1:e1-40 2:a41-80 3:e81-120
c num_clause-blocks                     1
c  clause-blocks                        497 * {1-40,1,1/2} | {41-80,1,1/2} | {81-120,1,1/2}
c num_e-seeds                           30+2=32
c  e-seeds                              1 0 1 0 4 120 2 40 1 40 0 40 1 497 3 1 1 1 1 2 2 2 1 1 2 3 3 1 1 2 1 1585242805992200501
p cnf 120 497
e 1 2 3 4 5 6 7 8 9 10 11 12 13 14 15 16 17 18 19 20 21 22 23 24 25 26 27 28 29 30 31 32 33 34 35 36 37 38 39 40 0
a 41 42 43 44 45 46 47 48 49 50 51 52 53 54 55 56 57 58 59 60 61 62 63 64 65 66 67 68 69 70 71 72 73 74 75 76 77 78 79 80 0
e 81 82 83 84 85 86 87 88 89 90 91 92 93 94 95 96 97 98 99 100 101 102 103 104 105 106 107 108 109 110 111 112 113 114 115 116 117 118 119 120 0
9 -44 -81 0
-17 44 -81 0
-21 -47 -81 0
12 61 -81 0
32 63 -81 0
-2 -65 -81 0
36 77 -81 0
-15 -79 -81 0
9 44 81 0
11 44 81 0
3 -59 81 0
20 61 81 0
-13 -64 81 0
-37 -64 81 0
29 75 81 0
35 44 -82 0
19 47 -82 0
-40 50 -82 0
-19 51 -82 0
-22 -63 -82 0
7 -74 -82 0
2 75 -82 0
33 42 82 0
16 -53 82 0
24 61 82 0
39 -70 82 0
8 -77 82 0
5 -49 -83 0
-14 72 -83 0
7 -74 -83 0
-40 77 -83 0
4 47 83 0
-30 -48 83 0
21 -55 83 0
-16 -56 83 0
19 56 83 0
37 57 83 0
5 64 83 0
-19 45 -84 0
-34 45 -84 0
-25 62 -84 0
-27 -74 -84 0
38 76 -84 0
35 78 -84 0
-18 -41 84 0
30 47 84 0
3 49 84 0
-39 54 84 0
39 57 84 0
-30 -58 84 0
16 61 84 0
11 64 84 0
37 67 84 0
-26 -70 84 0
24 -75 84 0
23 -58 -85 0
39 -62 -85 0
-6 66 -85 0
-19 68 -85 0
23 -65 85 0
-25 -66 85 0
1 67 85 0
-10 71 85 0
-12 71 85 0
26 71 85 0
-38 -75 85 0
17 77 85 0
15 41 -86 0
12 -43 -86 0
21 -49 -86 0
25 -49 -86 0
30 56 -86 0
1 -59 -86 0
-21 74 -86 0
4 76 -86 0
37 -80 -86 0
-36 -42 86 0
11 -59 86 0
21 -59 86 0
-34 69 86 0
39 73 86 0
23 76 86 0
-39 -79 86 0
39 44 -87 0
-4 -55 -87 0
19 -63 -87 0
32 -67 -87 0
-36 -71 -87 0
40 71 -87 0
37 74 -87 0
8 -75 -87 0
-9 80 -87 0
35 -50 87 0
25 -55 87 0
-25 64 87 0
23 75 87 0
-15 -48 -88 0
-7 50 -88 0
-11 52 -88 0
-33 55 -88 0
16 72 -88 0
-28 44 88 0
-31 -56 88 0
6 -57 88 0
39 -58 88 0
-23 -72 88 0
-17 -73 88 0
22 43 -89 0
32 49 -89 0
23 -51 -89 0
-12 43 89 0
-3 45 -90 0
24 48 -90 0
17 -60 -90 0
-19 67 -90 0
20 -75 -90 0
-33 -80 -90 0
26 -47 90 0
33 47 90 0
10 50 90 0
-9 51 90 0
34 -62 90 0
9 77 90 0
-8 44 -91 0
28 -59 -91 0
-24 -62 -91 0
-5 67 -91 0
34 78 -91 0
19 41 91 0
-37 45 91 0
-13 -48 91 0
10 49 91 0
9 -57 91 0
-33 -59 91 0
-38 -59 91 0
22 -60 91 0
-12 61 91 0
34 -63 91 0
15 -68 91 0
19 43 -92 0
-34 47 -92 0
18 52 -92 0
-21 52 -92 0
14 -58 -92 0
-28 -59 -92 0
-22 64 -92 0
-23 67 -92 0
12 69 -92 0
8 71 -92 0
13 -75 -92 0
35 -78 -92 0
23 45 92 0
-37 48 92 0
-10 51 92 0
-40 -52 92 0
-12 56 92 0
-6 -59 92 0
-9 -64 92 0
22 68 92 0
-7 -75 92 0
31 -56 -93 0
1 68 -93 0
8 -42 93 0
40 43 93 0
19 -47 93 0
-2 -48 93 0
-4 -62 93 0
-2 68 93 0
-17 -69 93 0
-13 41 -94 0
-30 -50 -94 0
35 57 -94 0
-31 48 94 0
9 -53 94 0
-31 60 94 0
21 41 -95 0
18 -43 -95 0
36 -50 -95 0
-32 -54 -95 0
-37 57 -95 0
-3 60 -95 0
23 41 95 0
26 52 95 0
22 -66 95 0
29 69 95 0
-30 75 95 0
15 77 95 0
12 -80 95 0
-25 -43 -96 0
27 -46 -96 0
-16 -53 -96 0
-23 -55 -96 0
-17 -60 -96 0
-35 -61 -96 0
-36 62 -96 0
4 66 -96 0
35 -55 96 0
-12 59 96 0
20 -66 96 0
-26 66 96 0
-37 68 96 0
-39 69 96 0
-10 -41 -97 0
-36 -60 -97 0
-2 -64 -97 0
32 65 -97 0
-29 43 97 0
-31 44 97 0
5 -48 97 0
-14 57 97 0
12 -65 97 0
-18 -43 -98 0
-24 51 -98 0
-17 -63 -98 0
9 68 -98 0
19 73 -98 0
15 -74 -98 0
17 -76 -98 0
-37 80 -98 0
-25 -43 98 0
-6 -49 98 0
15 52 98 0
-4 58 98 0
1 -60 98 0
-36 60 98 0
-26 -61 98 0
-12 -68 98 0
26 78 98 0
-40 61 -99 0
-22 -70 -99 0
22 -42 99 0
-22 45 99 0
-27 45 99 0
-16 46 99 0
40 50 99 0
11 56 99 0
-1 64 99 0
-36 47 -100 0
-30 -52 -100 0
-23 -54 -100 0
-19 55 -100 0
9 -65 -100 0
30 -69 -100 0
25 43 100 0
2 54 100 0
14 -59 100 0
-5 -62 100 0
-11 -64 100 0
22 -68 100 0
1 71 100 0
3 -77 100 0
18 -77 100 0
-12 77 100 0
-38 -45 -101 0
-29 46 -101 0
-36 50 -101 0
29 64 -101 0
-21 -74 -101 0
24 -41 101 0
32 -41 101 0
-6 45 101 0
-1 47 101 0
5 -62 101 0
-26 -67 101 0
14 68 101 0
-26 -75 101 0
-38 77 101 0
-38 41 -102 0
-17 -43 -102 0
10 63 -102 0
-12 64 -102 0
36 -65 -102 0
37 -72 -102 0
-30 80 -102 0
-25 -48 102 0
-33 -56 102 0
32 -59 102 0
33 62 102 0
35 -65 102 0
40 80 102 0
-15 -49 -103 0
-11 70 -103 0
1 -71 -103 0
-38 80 -103 0
-25 41 103 0
11 -50 103 0
-16 -52 103 0
-12 -54 103 0
-37 -42 104 0
23 -44 104 0
11 -54 104 0
-23 -59 104 0
-4 59 104 0
8 -60 104 0
13 -61 104 0
-5 -64 104 0
40 -44 -105 0
-19 -53 -105 0
16 48 105 0
1 49 105 0
15 52 105 0
29 71 105 0
-35 -79 105 0
37 68 -106 0
-13 70 -106 0
-32 -76 -106 0
-8 -48 106 0
9 -56 106 0
-3 -59 106 0
-8 -61 106 0
-26 63 106 0
17 72 106 0
38 73 106 0
17 77 106 0
-31 -43 -107 0
35 -44 -107 0
24 46 -107 0
31 54 -107 0
17 -58 -107 0
-30 58 -107 0
5 -61 -107 0
-19 -61 -107 0
20 66 -107 0
-11 -67 -107 0
25 69 -107 0
29 74 -107 0
-13 -78 -107 0
38 -79 -107 0
32 79 -107 0
4 49 107 0
-3 -55 107 0
-14 -62 107 0
-6 -63 107 0
15 -64 107 0
-35 65 107 0
-13 80 107 0
4 -45 -108 0
35 -47 -108 0
-38 -55 -108 0
-14 56 -108 0
19 -59 -108 0
-3 79 -108 0
36 -80 -108 0
-27 80 -108 0
34 -48 108 0
-3 -49 108 0
-20 -53 108 0
-4 -61 108 0
-34 76 108 0
18 -77 108 0
-28 -77 108 0
1 -50 -109 0
-36 57 -109 0
-30 74 -109 0
21 75 -109 0
33 80 -109 0
-36 43 109 0
-25 -50 109 0
-12 -76 109 0
-32 79 109 0
11 48 -110 0
36 51 -110 0
-31 56 -110 0
27 -71 -110 0
20 -73 -110 0
36 -46 110 0
20 -50 110 0
25 -51 110 0
-16 -55 110 0
-21 56 110 0
-30 72 110 0
3 74 110 0
6 -79 110 0
-2 -80 110 0
-4 -41 -111 0
20 46 -111 0
28 -54 -111 0
19 62 -111 0
-21 -64 -111 0
-13 73 -111 0
-35 73 -111 0
-4 80 -111 0
18 -43 111 0
11 55 111 0
-15 57 111 0
-20 -50 -112 0
7 54 -112 0
33 -69 -112 0
-12 -71 -112 0
-11 -75 -112 0
10 79 -112 0
33 44 112 0
-29 46 112 0
-36 52 112 0
-33 -55 112 0
-33 -59 112 0
8 -61 112 0
31 71 112 0
-12 -74 112 0
28 -43 -113 0
13 -48 -113 0
-9 51 -113 0
13 -55 -113 0
13 -57 -113 0
14 64 -113 0
15 -65 -113 0
-39 -74 -113 0
22 49 113 0
-21 -53 113 0
18 74 113 0
-8 -43 -114 0
-37 50 -114 0
-19 54 -114 0
-38 58 -114 0
-36 -71 -114 0
23 71 -114 0
-21 75 -114 0
6 79 -114 0
22 -42 114 0
-29 50 114 0
10 60 114 0
31 -78 114 0
37 -79 114 0
-12 64 -115 0
-29 43 115 0
-7 -46 115 0
-32 51 115 0
19 53 115 0
-7 55 115 0
27 -65 115 0
26 69 115 0
39 -74 115 0
23 75 115 0
-39 44 -116 0
25 48 -116 0
-24 52 -116 0
-1 54 -116 0
39 56 -116 0
31 62 -116 0
-3 -64 -116 0
-9 -67 -116 0
20 -70 -116 0
29 71 -116 0
-18 -74 -116 0
12 76 -116 0
25 -44 116 0
-25 51 116 0
21 52 116 0
-39 -59 116 0
-19 -66 116 0
15 78 116 0
-12 -44 -117 0
13 -45 -117 0
-31 47 -117 0
-33 -49 -117 0
37 -55 -117 0
-7 -64 -117 0
-15 42 117 0
1 -50 117 0
34 66 117 0
-35 -68 117 0
25 -41 -118 0
40 42 -118 0
13 44 -118 0
-11 47 -118 0
28 49 -118 0
27 51 -118 0
9 -52 -118 0
3 67 -118 0
33 68 -118 0
40 -79 -118 0
-38 -44 118 0
16 48 118 0
6 -53 118 0
26 -76 118 0
-28 -49 -119 0
-39 51 -119 0
21 -59 -119 0
38 65 -119 0
-28 -70 -119 0
-8 -73 -119 0
30 -43 119 0
-33 -44 119 0
28 -46 119 0
-39 67 119 0
14 71 119 0
11 73 119 0
31 -74 119 0
-18 80 119 0
8 -54 -120 0
40 55 -120 0
6 60 -120 0
21 62 -120 0
12 -76 -120 0
-38 -79 -120 0
-5 -64 120 0
-36 72 120 0
